150
100000
30735
40017
6576
36282
1238
531
13309
34182
38639
7458
3393
12742
49005
16333
27978
50939
55942
61010
53363
24576
62479
36220
1805
66430
9956
29934
22158
64982
30945
20158
22821
51988
35599
19059
47566
19025
19850
32717
57812
22259
5774
25920
40290
57692
27062
20863
15715
39095
964
24791
41521
4348
34205
4742
35650
21708
11756
10364
28331
49609
24897
37752
34636
33658
41704
13115
65243
1641
16996
12230
10439
22819
52654
6907
68336
50391
22276
7818
893
23727
2250
12219
26020
23654
22828
35284
25838
3490
66733
37563
3931
14220
36753
50119
58746
42110
21176
49881
55312
48675
42308
73243
27309
27169
3565
66342
68974
6
59473
7365
44826
9513
9564
22311
31614
14507
63531
25930
31702
68054
65795
46649
16163
41557
18587
64350
49872
18637
60672
10720
31133
9394
14275
7741
10829
35824
65818
15488
20197
8333
50132
11033
21083
35280
14563
12000
9061
23225
56181
34757
